
  23    0


   0   9 2 3 4 5 8 19 20 21 22 
   7   8 18 17 16 15 12 9 7 6 
   8   4 14 11 10 9 
   9   2 12 9 
  10   2 11 9 
   2   1 13 
   5   1 10 
   2   1 9 
   5   1 23
   8   1 23
   8   1 23
   3   1 23
   9   1 23
   3   1 23
   8   1 23
   5   1 23
   6   1 23
  10   1 23
   4   1 23
   8   1 23
   2   1 23
   1   1 23
   0   0 
